NAME: tsp20_batch1_gaussian.tsp
TYPE: TSP
DIMENSION: 20
EDGE_WEIGHT_TYPE: EUC_2D
NODE_COORD_SECTION
1 71.18926596245058 46.44658314037555
2 29.810434744317657 75.56068707322565
3 49.53374066315167 53.67343579243526
4 68.75479497985009 15.131020058598072
5 36.69366332987807 82.45176312466477
6 89.50471782345828 46.42160575487742
7 42.003771402856124 79.24451910565364
8 96.95446107465409 38.84526612899943
9 93.79535361094078 60.26250088064685
10 50.09076523351632 38.7093553512899
11 65.17320398009824 84.0124239002937
12 88.22300728711544 53.93253258523173
13 53.770563684003164 0.0
14 49.853868303040464 44.18913737593239
15 50.58878737864412 70.37161205546803
16 24.86576191765608 72.49007501848334
17 100.0 63.646029689926465
18 86.00097670057157 89.16237529256435
19 75.83332386226937 80.4740561739518
20 42.20767307228743 77.36644312983582
EOF
